
Gurobi 9.1.2 (win64, Java) logging started Sun Nov 14 00:27:46 2021

Academic license - for non-commercial use only - expires 2022-10-30
Gurobi Optimizer version 9.1.2 build v9.1.2rc0 (win64)
Thread count: 6 physical cores, 12 logical processors, using up to 12 threads
Optimize a model with 60 rows, 800 columns and 1600 nonzeros
Model fingerprint: 0xb5edd078
Variable types: 0 continuous, 800 integer (800 binary)
Coefficient statistics:
  Matrix range     [1e+00, 1e+03]
  Objective range  [5e+02, 1e+03]
  Bounds range     [1e+00, 1e+00]
  RHS range        [1e+00, 8e+02]
Found heuristic solution: objective 15437.000000
Presolve removed 8 rows and 377 columns
Presolve time: 0.04s
Presolved: 52 rows, 423 columns, 846 nonzeros
Variable types: 0 continuous, 423 integer (423 binary)
Presolved: 52 rows, 423 columns, 846 nonzeros


Root relaxation: objective 2.030913e+04, 277 iterations, 0.01 seconds

    Nodes    |    Current Node    |     Objective Bounds      |     Work
 Expl Unexpl |  Obj  Depth IntInf | Incumbent    BestBd   Gap | It/Node Time

     0     0 20309.1302    0   24 15437.0000 20309.1302  31.6%     -    0s
H    0     0                    18502.000000 20309.1302  9.77%     -    0s
H    0     0                    19369.000000 20309.1302  4.85%     -    0s
H    0     0                    19377.000000 20309.1302  4.81%     -    0s
H    0     0                    19521.000000 20309.1302  4.04%     -    0s
     0     0 20100.4976    0   41 19521.0000 20100.4976  2.97%     -    0s
     0     0 20092.3336    0   29 19521.0000 20092.3336  2.93%     -    1s
     0     0 20088.8743    0   49 19521.0000 20088.8743  2.91%     -    1s
     0     0 20088.8625    0   49 19521.0000 20088.8625  2.91%     -    1s
     0     0 20082.7434    0   59 19521.0000 20082.7434  2.88%     -    1s
     0     0 20081.9492    0   54 19521.0000 20081.9492  2.87%     -    1s
     0     0 20081.6715    0   54 19521.0000 20081.6715  2.87%     -    2s
     0     0 20072.0336    0   59 19521.0000 20072.0336  2.82%     -    2s
     0     0 20071.8880    0   61 19521.0000 20071.8880  2.82%     -    2s
     0     0 20065.1028    0   46 19521.0000 20065.1028  2.79%     -    2s
     0     0 20064.9904    0   48 19521.0000 20064.9904  2.79%     -    3s
     0     0 20062.0661    0   60 19521.0000 20062.0661  2.77%     -    3s
     0     0 20062.0661    0   60 19521.0000 20062.0661  2.77%     -    3s
H    0     0                    19990.000000 20062.0661  0.36%     -    3s
     0     0 20062.0661    0   19 19990.0000 20062.0661  0.36%     -    3s
     0     0 20062.0661    0   49 19990.0000 20062.0661  0.36%     -    3s
     0     0 20062.0661    0   49 19990.0000 20062.0661  0.36%     -    3s
     0     0 20060.3547    0   50 19990.0000 20060.3547  0.35%     -    3s
     0     0 20059.7237    0   53 19990.0000 20059.7237  0.35%     -    3s
     0     0 20055.5372    0   52 19990.0000 20055.5372  0.33%     -    4s
     0     0 20053.9758    0   58 19990.0000 20053.9758  0.32%     -    4s
     0     0 20051.7895    0   50 19990.0000 20051.7895  0.31%     -    4s
     0     0 20051.7895    0   50 19990.0000 20051.7895  0.31%     -    4s
     0     2 20051.7895    0   50 19990.0000 20051.7895  0.31%     -    4s
H   28    24                    20019.000000 20041.5563  0.11%  29.9    5s
*  583    45               8    20026.000000 20028.6967  0.01%  12.8    7s

Cutting planes:
  Gomory: 8
  Cover: 37
  Clique: 3
  MIR: 39
  StrongCG: 28

Explored 602 nodes (9486 simplex iterations) in 7.10 seconds
Thread count was 12 (of 12 available processors)

Solution count 9: 20026 20019 19990 ... 15437

Optimal solution found (tolerance 1.00e-12)
Best objective 2.002600000000e+04, best bound 2.002600000000e+04, gap 0.0000%
